1
100
89
1 4
2 1
3 1
4 2
5 3
6 2
7 1
9 2
10 3
11 2
13 1
14 3
15 2
16 1
19 1
20 2
21 1
22 4
23 3
24 4
25 3
26 3
27 2
28 1
29 3
30 2
31 1
32 3
33 2
34 1
35 2
36 3
38 1
39 2
40 3
42 2
43 2
44 1
45 1
46 3
47 1
48 1
49 3
50 3
51 1
52 5
53 2
54 2
56 2
57 4
58 1
59 1
60 5
61 1
62 6
66 1
67 2
68 3
69 2
70 2
71 1
72 3
73 5
74 4
75 2
76 2
77 2
78 1
79 3
80 2
81 2
82 1
83 1
84 3
85 2
86 5
87 2
88 2
89 3
90 3
91 4
92 1
93 4
94 2
95 2
97 1
98 2
99 2
100 1
